1225 2400
2 1 4
176 1 -4
568 1 -4
816 1 4
681 2 -4
1025 2 -4
1079 2 4
4 3 4
166 3 -4
630 3 -4
631 3 4
181 4 -4
658 4 -4
1092 4 4
76 5 4
591 5 -4
999 5 4
1044 5 -4
7 6 4
15 6 4
19 6 -4
535 6 -4
529 7 -4
545 7 -4
803 7 4
9 8 4
587 8 -4
608 8 4
660 8 -4
628 9 -4
685 9 -4
1038 9 4
11 10 -4
792 10 4
1046 10 4
1049 10 -4
28 11 4
717 11 4
752 11 -4
13 12 -4
201 12 4
841 12 4
880 12 -4
382 13 4
580 13 -4
877 13 4
125 14 -4
304 14 4
496 14 4
536 14 -4
68 15 -4
496 15 -4
646 15 4
17 16 -4
48 16 -4
755 16 4
1098 16 4
76 17 -4
868 17 4
1222 17 4
187 18 4
524 18 -4
801 18 4
878 18 -4
83 19 -4
619 19 4
1179 19 4
142 20 -4
602 20 4
737 20 4
774 20 -4
497 21 -4
591 21 -4
906 21 4
1162 21 4
170 22 4
528 22 -4
766 22 4
915 22 -4
96 23 -4
496 23 -4
600 23 4
1118 23 4
157 24 -4
581 24 4
707 24 4
812 24 -4
26 25 4
27 25 -4
234 25 -4
1141 25 4
208 26 4
506 26 -4
519 26 -4
509 27 -4
858 27 4
1199 27 4
755 28 4
1221 28 -4
1224 28 -4
154 29 4
533 29 -4
728 29 4
961 29 -4
173 30 -4
565 30 4
678 30 4
851 30 -4
32 31 4
229 31 4
927 31 -4
1078 31 -4
359 32 -4
370 32 4
565 32 -4
34 33 4
35 33 -4
249 33 -4
1203 33 4
194 34 4
504 34 -4
518 34 -4
233 35 4
511 35 -4
895 35 4
280 36 4
362 36 4
1097 36 -4
1160 36 -4
792 37 4
1160 37 4
1161 37 -4
1164 37 -4
694 38 4
798 38 4
836 38 -4
1167 38 -4
40 39 4
189 39 -4
555 39 4
888 39 -4
406 40 4
650 40 -4
1018 40 -4
218 41 4
566 41 4
583 41 -4
740 41 -4
43 42 4
44 42 -4
195 42 4
987 42 -4
99 43 -4
178 43 4
515 43 -4
248 44 4
515 44 -4
936 44 4
46 45 4
135 45 -4
861 45 4
989 45 -4
146 46 -4
195 46 -4
196 46 4
290 47 4
349 47 4
1098 47 -4
1158 47 -4
49 48 4
794 48 4
1051 48 -4
1098 49 4
1099 49 -4
1102 49 -4
51 50 -4
722 50 4
761 50 4
839 50 -4
668 51 4
579 52 -4
597 52 4
1111 52 4
1171 52 -4
54 53 4
499 53 -4
768 53 -4
966 53 4
124 54 -4
226 54 4
528 54 -4
205 55 4
582 55 4
604 55 -4
777 55 -4
57 56 4
58 56 -4
179 56 4
938 56 -4
86 57 -4
511 57 -4
937 57 4
263 58 4
518 58 -4
985 58 4
60 59 4
148 59 -4
899 59 4
939 59 -4
161 60 -4
179 60 -4
1089 60 4
62 61 4
497 61 -4
757 61 4
1103 61 -4
1046 62 4
1047 62 -4
1050 62 -4
64 63 -4
724 63 4
759 63 4
876 63 -4
640 64 4
598 65 -4
617 65 4
728 65 -4
1058 65 4
67 66 4
255 66 -4
919 66 4
964 66 -4
108 67 -4
214 67 4
524 67 -4
676 68 -4
807 68 4
1014 68 4
582 69 -4
603 69 4
1127 69 4
1188 69 -4
192 70 4
603 70 4
623 70 -4
814 70 -4
72 71 4
684 71 -4
983 71 4
1137 71 -4
569 72 -4
779 72 -4
856 72 4
74 73 -4
162 73 4
896 73 -4
983 73 4
519 74 -4
982 74 4
1031 74 4
165 75 -4
897 75 -4
942 75 4
1143 75 4
290 76 -4
319 76 4
78 77 -4
696 77 4
796 77 4
913 77 -4
615 78 4
618 79 -4
642 79 4
766 79 -4
1008 79 4
81 80 4
82 80 -4
271 80 -4
882 80 4
93 81 -4
201 81 -4
202 81 4
154 82 -4
256 82 4
1174 82 4
703 83 -4
847 83 4
969 83 4
113 84 4
507 84 -4
564 84 -4
847 84 4
175 85 4
622 85 4
653 85 -4
853 85 -4
87 86 4
132 86 4
656 86 -4
557 87 -4
742 87 -4
893 87 4
712 88 -4
859 88 -4
992 88 4
1205 88 4
863 89 4
900 89 -4
942 89 -4
992 89 4
91 90 -4
138 90 4
835 90 4
956 90 -4
350 91 4
643 92 -4
670 92 4
801 92 -4
960 92 4
962 93 4
1009 93 -4
1175 93 4
95 94 -4
283 94 -4
844 94 4
1175 94 4
170 95 -4
272 95 4
1114 95 4
732 96 -4
885 96 4
922 96 4
368 97 -4
490 97 4
565 97 4
1019 97 -4
159 98 4
652 98 4
680 98 -4
890 98 -4
100 99 4
101 99 -4
117 99 4
547 100 -4
710 100 -4
934 100 4
386 101 4
394 101 4
606 101 -4
103 102 4
685 102 -4
821 102 -4
1036 102 4
133 103 4
512 103 -4
627 103 -4
824 104 4
899 104 -4
945 104 -4
1036 104 4
106 105 -4
122 105 4
874 105 4
1006 105 -4
363 106 4
671 107 -4
698 107 4
841 107 -4
914 107 4
110 108 4
916 108 4
1059 108 -4
110 109 4
111 109 -4
294 109 -4
804 109 4
170 110 -4
543 110 -4
187 111 -4
284 111 4
1061 111 4
442 112 4
500 112 -4
554 112 -4
646 112 4
356 113 4
500 113 -4
1071 113 -4
356 114 -4
483 114 4
581 114 4
974 114 -4
144 115 4
679 115 4
708 115 -4
929 115 -4
504 116 4
538 116 -4
682 116 -4
981 116 4
504 117 -4
1086 117 4
1140 117 -4
570 118 4
858 118 4
939 118 -4
1086 118 -4
210 119 4
861 119 -4
995 119 -4
1090 119 4
578 120 -4
797 120 4
910 120 4
1056 120 -4
122 121 -4
698 121 -4
726 121 4
797 121 4
400 122 4
640 122 -4
364 123 4
699 123 -4
726 123 4
878 123 -4
126 124 4
879 124 4
1112 124 -4
126 125 4
127 125 -4
172 125 4
154 126 -4
534 126 -4
201 127 -4
295 127 4
1010 127 4
341 128 -4
501 128 -4
619 128 4
808 128 4
342 129 -4
479 129 4
602 129 4
926 129 -4
274 130 4
568 130 -4
1021 130 4
1078 130 -4
220 131 -4
506 131 4
655 131 -4
1029 131 4
506 132 -4
1032 132 4
1202 132 -4
208 133 4
989 133 -4
1032 133 -4
135 134 -4
198 134 4
1039 134 -4
1147 134 4
332 135 4
823 135 4
596 136 -4
838 136 4
953 136 4
1107 136 -4
138 137 -4
670 137 -4
763 137 4
838 137 4
415 138 4
668 138 -4
352 139 4
727 139 -4
763 139 4
915 139 -4
304 140 4
524 140 -4
529 140 -4
963 140 4
326 141 -4
502 141 -4
600 141 4
770 141 4
623 142 -4
889 142 4
1129 142 4
144 143 -4
260 143 4
709 143 -4
1077 143 4
359 144 -4
977 144 4
206 145 -4
462 145 4
509 145 4
625 145 -4
194 146 4
986 146 -4
1205 146 4
148 147 -4
183 147 4
1093 147 -4
1209 147 4
347 148 4
783 148 4
150 149 4
787 149 -4
1047 149 4
1099 149 -4
423 150 4
689 150 -4
866 150 -4
152 151 4
642 151 -4
696 151 -4
799 151 4
363 152 -4
1057 152 4
1165 152 -4
338 153 4
764 153 -4
799 153 4
961 153 -4
802 154 4
528 155 -4
534 155 -4
803 155 4
917 155 4
427 156 4
529 156 4
534 156 -4
805 156 -4
653 157 -4
852 157 4
1075 157 4
159 158 -4
244 158 4
741 158 -4
1132 158 4
345 159 -4
379 159 4
193 160 -4
472 160 4
511 160 4
606 160 -4
178 161 4
937 161 -4
1143 161 4
821 162 -4
985 162 4
1143 162 -4
164 163 4
165 163 -4
944 163 4
1150 163 -4
222 164 4
587 164 -4
1146 164 -4
360 165 4
745 165 4
236 166 4
902 166 -4
944 166 4
168 167 4
750 167 -4
1001 167 4
1161 167 -4
413 168 4
663 168 -4
827 168 -4
268 169 4
617 169 -4
724 169 -4
912 169 4
767 170 4
324 171 4
533 171 -4
543 171 -4
843 171 4
418 172 4
543 172 -4
845 172 -4
680 173 -4
813 173 4
1020 173 4
175 174 -4
230 174 4
778 174 -4
1194 174 4
329 175 -4
930 175 4
177 176 4
933 176 4
1137 176 -4
230 177 -4
386 177 4
1080 177 -4
439 178 -4
894 178 -4
782 179 -4
1031 179 4
181 180 4
712 180 -4
994 180 4
1212 180 -4
209 181 4
1089 181 -4
183 182 -4
223 182 4
632 182 -4
994 182 4
713 183 -4
1151 183 4
185 184 4
788 184 -4
950 184 4
1221 184 -4
398 185 4
634 185 -4
786 185 -4
254 186 4
597 186 -4
761 186 -4
955 186 4
729 187 4
1175 187 -4
804 188 4
1175 188 4
1176 188 -4
1177 188 -4
708 189 -4
775 189 4
975 189 4
191 190 4
192 190 -4
219 190 4
815 190 -4
307 191 4
681 191 -4
1192 191 -4
315 192 -4
976 192 4
585 193 4
980 193 4
1134 193 -4
446 194 -4
857 194 -4
744 195 -4
1085 195 4
440 196 -4
628 196 4
1034 196 -4
198 197 -4
211 197 4
661 197 -4
1038 197 4
465 198 4
745 198 -4
388 199 4
610 199 -4
748 199 -4
906 199 4
238 200 4
579 200 -4
798 200 -4
1005 200 4
700 201 4
844 202 4
1115 202 -4
1116 202 -4
227 203 4
510 203 4
517 203 -4
1015 203 -4
297 204 4
537 204 4
654 204 -4
928 204 -4
307 205 -4
537 205 -4
1022 205 4
207 206 4
1028 206 4
1081 206 -4
568 207 4
779 207 -4
978 207 -4
818 208 -4
820 208 -4
447 209 -4
989 209 4
990 209 -4
455 210 4
520 210 -4
783 210 -4
520 211 -4
559 211 4
573 211 -4
381 212 4
590 212 -4
716 212 -4
868 212 4
225 213 4
598 213 -4
839 213 -4
1055 213 4
882 214 4
1062 214 -4
1063 214 -4
459 215 4
507 215 4
846 215 -4
1119 215 -4
287 216 4
928 216 -4
1128 216 4
1190 216 -4
286 217 4
287 217 -4
546 217 4
624 217 -4
297 218 -4
546 218 -4
1079 218 4
221 219 4
546 219 -4
585 219 -4
221 220 4
247 220 4
1025 220 -4
742 221 -4
931 221 -4
454 222 -4
939 222 4
940 222 -4
522 223 -4
549 223 4
589 223 -4
373 224 4
574 224 -4
689 224 -4
829 224 4
616 225 -4
959 225 4
1169 225 -4
385 226 -4
919 226 4
1011 226 -4
451 227 4
806 227 -4
1065 227 -4
273 228 -4
556 228 4
605 228 -4
739 228 4
286 229 -4
437 229 4
556 229 -4
231 230 4
556 230 -4
538 231 4
710 231 -4
891 231 -4
538 232 -4
709 232 -4
1027 232 4
1196 232 4
473 233 -4
1137 233 4
1138 233 -4
317 234 4
897 234 -4
1088 234 4
371 235 -4
464 235 -4
897 235 4
1209 235 4
523 236 -4
540 236 4
609 236 -4
361 237 4
560 237 -4
663 237 -4
789 237 4
270 238 4
641 238 -4
1109 238 -4
269 239 -4
416 239 4
533 239 4
1008 239 -4
392 240 -4
964 240 4
965 240 -4
966 240 4
443 241 4
769 241 -4
1013 241 -4
1183 241 4
443 242 -4
848 242 4
1183 242 4
1185 242 -4
259 243 -4
567 243 4
584 243 -4
776 243 4
245 244 4
567 244 -4
1134 244 -4
547 245 4
682 245 -4
854 245 -4
438 246 4
547 246 -4
741 246 -4
1083 246 4
248 247 4
547 247 -4
1199 247 -4
481 248 -4
1084 248 -4
331 249 4
859 249 -4
1034 249 4
525 250 4
660 250 -4
745 250 4
1148 250 -4
550 251 -4
634 251 -4
751 251 4
1159 251 4
300 252 4
527 252 -4
691 252 4
719 252 -4
669 253 4
723 253 4
762 253 -4
837 253 -4
669 254 -4
877 254 4
1110 254 -4
256 255 4
355 255 4
1117 255 -4
404 256 -4
918 256 -4
451 257 -4
886 257 4
1122 257 4
1124 257 -4
809 258 4
886 258 -4
973 258 4
1072 258 -4
452 259 4
814 259 -4
1020 259 4
261 260 4
584 260 -4
1081 260 -4
557 261 4
655 261 -4
815 261 -4
445 262 4
557 262 -4
778 262 -4
1136 262 4
485 263 -4
1028 263 4
1030 263 -4
530 264 4
631 264 -4
783 264 4
1091 264 -4
278 265 -4
610 265 -4
717 265 4
1220 265 4
291 266 4
532 266 -4
665 266 4
756 266 -4
281 267 -4
697 267 4
725 267 -4
760 267 4
697 268 -4
840 268 4
1170 268 -4
270 269 -4
375 269 4
840 269 4
476 270 4
915 270 -4
272 271 4
563 271 4
1178 271 -4
402 272 -4
419 272 -4
460 273 4
853 273 -4
975 273 4
275 274 4
605 274 -4
1025 274 -4
569 275 4
625 275 -4
778 275 -4
453 276 4
569 276 -4
815 276 -4
1198 276 4
539 277 4
608 277 -4
823 277 4
1037 277 -4
279 278 4
280 278 4
526 278 -4
560 279 -4
687 279 4
746 279 -4
590 280 -4
591 280 -4
448 281 4
796 281 4
798 281 -4
366 282 4
644 282 -4
800 282 4
959 282 -4
284 283 4
553 283 4
1118 283 -4
417 284 -4
428 284 -4
377 285 -4
470 285 4
889 285 -4
1191 285 4
708 286 -4
1191 286 4
470 287 4
890 287 -4
586 288 4
606 288 -4
709 288 4
741 288 -4
548 289 4
588 289 -4
862 289 4
993 289 -4
550 290 4
574 290 -4
551 291 -4
293 292 4
354 292 4
672 292 -4
1169 292 -4
763 293 4
764 293 -4
766 293 -4
295 294 4
545 294 4
1179 294 -4
426 295 -4
435 295 -4
369 296 -4
460 296 4
679 296 4
852 296 -4
679 297 4
680 297 -4
421 298 -4
430 298 4
942 298 4
1206 298 -4
308 299 4
558 299 4
572 299 -4
943 299 -4
561 300 -4
449 301 -4
726 301 4
1166 301 4
1167 301 -4
303 302 4
340 302 4
700 302 -4
1109 302 -4
726 303 4
727 303 -4
728 303 -4
434 304 -4
768 304 -4
477 305 -4
490 305 4
811 305 4
1123 305 -4
357 306 -4
452 306 4
652 306 4
813 306 -4
652 307 4
653 307 -4
464 308 -4
899 308 4
900 308 -4
457 309 -4
698 309 4
1106 309 4
1107 309 -4
311 310 4
323 310 4
729 310 -4
1110 310 -4
698 311 4
699 311 -4
1171 311 -4
599 312 4
675 312 -4
769 312 -4
885 312 4
468 313 -4
483 313 4
850 313 4
1069 313 -4
343 314 -4
444 314 4
622 314 4
775 314 -4
622 315 4
623 315 -4
1194 315 4
484 316 -4
815 316 4
1194 316 4
1196 316 -4
857 317 4
896 317 -4
1030 317 -4
319 318 -4
320 318 4
575 318 -4
592 318 4
388 319 4
718 319 -4
594 320 4
636 320 -4
666 320 -4
467 321 -4
670 321 4
1055 321 4
1056 321 -4
670 322 4
671 322 -4
765 322 4
1111 322 -4
324 323 4
765 323 -4
917 323 -4
402 324 -4
879 324 -4
326 325 4
536 325 4
553 325 -4
620 325 -4
730 326 -4
847 326 4
328 327 4
621 327 4
738 327 -4
889 327 -4
458 328 -4
477 328 -4
479 328 4
603 329 4
604 329 -4
1132 329 4
438 330 -4
491 330 -4
854 330 4
1132 330 4
894 331 4
938 331 -4
984 331 -4
396 332 4
629 332 -4
1034 332 -4
334 333 4
335 333 -4
336 333 4
593 333 -4
373 334 4
664 334 -4
1220 334 -4
398 335 4
635 335 4
754 335 -4
611 336 -4
613 336 4
638 336 -4
476 337 -4
642 337 4
1005 337 4
1006 337 -4
339 338 4
340 338 -4
802 338 -4
642 339 4
643 339 -4
1058 339 -4
963 340 -4
1173 340 4
645 341 4
701 341 -4
807 341 4
343 342 -4
601 342 4
887 342 4
344 343 4
850 343 4
582 344 4
708 344 -4
1126 344 -4
582 345 4
583 345 -4
1077 345 4
445 346 -4
891 346 4
1077 346 4
1078 346 -4
658 347 -4
822 347 4
990 347 -4
361 348 4
611 348 4
636 348 -4
1159 348 -4
413 349 4
611 349 -4
791 349 -4
596 350 -4
838 350 -4
955 350 4
617 351 4
955 351 4
956 351 -4
958 351 -4
353 352 4
354 352 -4
842 352 -4
617 353 4
618 353 -4
1008 353 -4
1010 354 -4
1113 354 4
673 355 -4
730 355 -4
1177 355 4
357 356 -4
849 356 4
358 357 4
811 357 4
566 358 4
680 358 -4
1072 358 -4
566 359 4
1021 359 4
685 360 -4
860 360 4
940 360 -4
1097 361 -4
1099 361 -4
423 362 4
636 362 -4
831 362 -4
578 363 -4
912 363 4
365 364 4
366 364 -4
879 364 -4
597 365 4
598 365 -4
960 365 -4
1060 366 4
1061 366 -4
701 367 -4
769 367 -4
966 367 4
1116 367 4
369 368 -4
564 368 4
810 368 4
370 369 4
773 369 4
653 370 -4
1018 370 -4
439 371 -4
571 371 4
896 371 4
996 372 4
1211 372 4
1212 372 -4
1215 372 -4
1045 373 -4
1047 373 -4
431 374 4
664 374 -4
717 374 4
870 374 -4
433 375 4
914 375 -4
1114 375 -4
730 376 -4
806 376 -4
919 376 4
1063 376 4
378 377 4
736 377 4
1071 377 -4
583 378 4
623 378 -4
973 378 -4
471 379 -4
929 379 -4
1024 379 4
1040 380 4
1149 380 4
1150 380 -4
1153 380 -4
592 381 4
1000 381 -4
1001 381 -4
425 382 4
960 382 -4
1174 382 -4
385 383 4
965 383 4
1011 383 -4
1063 383 -4
385 384 4
769 384 -4
846 384 -4
882 384 4
1117 385 -4
463 386 -4
1197 386 -4
1092 387 4
1093 387 -4
1094 387 4
1095 387 -4
949 388 -4
950 388 -4
615 389 4
1165 389 -4
392 390 4
918 390 4
1062 390 -4
1116 390 -4
392 391 4
806 391 -4
844 391 4
884 391 -4
1064 392 -4
473 393 -4
626 393 4
1134 393 4
1135 393 -4
395 394 4
626 394 -4
781 394 -4
895 395 -4
934 395 -4
1085 395 4
446 396 4
991 396 -4
1087 396 -4
1038 397 4
1039 397 -4
1041 397 -4
1152 397 4
905 398 -4
907 398 -4
640 399 4
1105 399 -4
643 400 4
761 400 -4
764 400 -4
402 401 4
404 401 4
1115 401 -4
1177 401 -4
880 402 4
404 403 4
804 403 4
846 403 -4
921 403 -4
1012 404 -4
406 405 4
648 405 4
649 405 -4
705 405 -4
678 406 -4
733 406 -4
481 407 -4
657 407 4
1081 407 4
1082 407 -4
409 408 4
656 408 4
657 408 -4
818 408 -4
893 409 -4
936 409 -4
1031 409 4
439 410 4
1033 410 -4
1035 410 -4
1207 410 4
659 411 4
1207 411 4
1208 411 -4
1210 411 -4
456 412 -4
994 412 4
995 412 -4
1214 412 4
867 413 -4
869 413 -4
668 414 4
1054 414 -4
671 415 4
724 415 -4
727 415 -4
417 416 4
672 416 -4
918 416 -4
881 417 4
1173 417 -4
419 418 4
884 418 -4
968 418 -4
881 419 4
967 419 -4
485 420 -4
683 420 4
1025 420 4
1026 420 -4
429 421 4
988 421 -4
1145 421 4
686 422 4
1145 422 4
1146 422 -4
1148 422 -4
828 423 -4
830 423 -4
695 424 4
1004 424 -4
426 425 4
700 425 -4
965 425 -4
843 426 4
1113 426 -4
428 427 4
921 427 -4
1013 427 -4
843 428 4
920 428 -4
936 429 4
937 429 -4
940 429 -4
713 430 4
1089 430 -4
1091 430 -4
787 431 4
788 431 -4
790 431 -4
723 432 4
954 432 -4
434 433 4
729 433 -4
1011 433 -4
803 434 4
1060 434 -4
803 435 4
805 435 4
883 435 -4
739 436 4
1189 436 4
1190 436 -4
1193 436 -4
438 437 4
740 437 -4
1196 437 -4
1135 438 -4
895 439 4
745 440 4
1035 440 4
1037 440 -4
760 441 4
911 441 -4
443 442 4
772 442 -4
849 442 -4
1182 443 -4
776 444 4
1128 444 -4
1131 444 -4
1079 445 4
1082 445 -4
858 446 4
860 446 -4
783 447 4
991 447 4
993 447 -4
875 448 -4
800 449 4
1168 449 4
1170 449 -4
451 450 4
807 450 4
810 450 -4
887 450 -4
1121 451 -4
1074 452 -4
1076 452 -4
1022 453 4
1023 453 -4
1026 453 -4
823 454 4
941 454 4
943 454 -4
456 455 4
824 455 -4
1041 455 -4
826 456 4
997 456 -4
840 457 4
1108 457 4
1110 457 -4
459 458 4
847 458 4
849 458 -4
1067 459 -4
1184 459 -4
1019 460 -4
1130 460 -4
855 461 4
976 461 4
977 461 -4
979 461 -4
463 462 4
857 462 -4
1084 462 -4
1198 463 4
1199 463 -4
862 464 4
898 464 4
466 465 4
863 465 -4
1095 465 -4
865 466 4
947 466 -4
1213 466 -4
877 467 4
1057 467 4
1109 467 -4
469 468 4
885 468 4
887 468 -4
1015 469 4
1016 469 -4
1123 469 -4
974 470 -4
1192 470 -4
892 471 4
930 471 4
932 471 -4
473 472 4
894 472 -4
1138 472 -4
1136 473 4
475 474 4
909 474 -4
495 475 -4
1223 475 4
1224 475 -4
1007 476 4
1169 476 -4
478 477 4
923 477 4
970 478 4
971 478 -4
1069 478 -4
1185 479 -4
1188 479 -4
481 480 4
933 480 4
935 480 -4
1200 480 -4
1083 481 4
952 482 -4
1225 482 4
1124 483 -4
1127 483 -4
977 484 4
1192 484 4
1193 484 -4
982 485 4
1027 485 4
487 486 4
1003 486 -4
1101 487 4
1102 487 -4
1104 487 -4
1004 488 4
1165 488 -4
1009 489 4
1169 489 4
1170 489 -4
1172 489 -4
1070 490 -4
1073 490 -4
1023 491 4
1130 491 4
1131 491 -4
1054 492 4
1105 492 -4
1059 493 4
1109 493 4
1110 493 -4
1112 493 -4
1097 494 4
1216 494 4
1217 494 -4
1219 494 -4
1225 495 4
544 496 -4
1049 497 -4
1160 497 4
564 498 -4
601 498 -4
807 498 -4
885 498 4
513 499 -4
529 499 -4
880 499 -4
621 500 -4
923 500 4
601 501 -4
650 501 -4
972 501 4
621 502 -4
677 502 -4
1017 502 4
650 503 -4
675 503 -4
704 503 -4
1068 503 4
626 504 -4
648 505 -4
677 505 -4
734 505 -4
1122 505 4
657 506 -4
514 507 -4
554 507 -4
649 508 -4
704 508 -4
771 508 -4
1183 508 4
683 509 -4
983 509 -4
676 510 -4
734 510 -4
809 510 -4
711 511 -4
895 512 4
897 512 -4
1140 512 -4
842 513 4
964 513 -4
1172 513 -4
703 514 -4
771 514 -4
848 514 -4
743 515 -4
933 515 4
859 516 -4
936 516 4
1202 516 -4
1205 516 -4
732 517 -4
809 517 -4
886 517 -4
780 518 -4
980 518 4
817 519 -4
1028 519 4
687 520 -4
1092 520 4
541 521 -4
1052 521 -4
714 522 -4
824 522 -4
1149 522 4
746 523 -4
863 523 -4
1211 523 4
672 524 4
632 525 -4
784 525 -4
900 525 -4
574 526 -4
661 526 4
784 526 -4
576 527 -4
644 528 4
661 530 -4
825 530 -4
945 530 -4
550 531 -4
590 531 -4
632 531 4
825 531 -4
594 532 -4
964 533 -4
535 534 -4
553 535 -4
843 535 4
599 536 -4
768 536 -4
568 537 -4
854 537 -4
1137 538 -4
687 539 -4
864 539 -4
995 539 -4
560 540 -4
610 540 -4
864 540 -4
542 541 -4
637 541 4
793 541 -4
613 542 -4
544 543 -4
563 544 -4
881 544 4
599 545 -4
645 545 -4
891 546 -4
714 548 -4
901 548 -4
1039 548 -4
574 549 -4
634 549 -4
901 549 -4
1154 550 -4
552 551 -4
612 551 4
832 551 -4
638 552 -4
673 553 -4
599 554 -4
673 554 -4
566 555 -4
622 555 4
1073 555 4
931 556 -4
1028 557 -4
746 558 -4
946 558 -4
1093 558 -4
590 559 -4
663 559 -4
946 559 -4
749 560 -4
562 561 -4
593 561 4
871 561 -4
666 562 -4
645 563 -4
701 563 -4
651 564 -4
652 565 4
740 567 -4
978 567 -4
980 569 -4
571 570 -4
607 570 -4
820 570 -4
628 571 -4
712 571 -4
784 572 -4
996 572 -4
1150 572 -4
610 573 -4
689 573 -4
996 573 -4
576 575 4
664 575 -4
692 575 -4
577 576 -4
1223 576 -4
692 577 -4
580 579 -4
1057 579 4
914 580 -4
958 580 -4
583 581 -4
679 581 4
777 584 -4
1024 584 -4
816 585 -4
1024 585 -4
656 586 -4
855 586 -4
933 586 -4
629 587 -4
1149 587 4
825 588 -4
1040 588 -4
1212 588 -4
634 589 -4
716 589 -4
1040 589 -4
592 591 4
690 592 -4
690 593 -4
720 593 -4
595 594 -4
1163 594 -4
720 595 -4
1007 597 4
1108 598 4
675 600 -4
1181 600 4
1125 601 -4
604 602 -4
1191 602 4
1189 603 4
925 604 -4
814 605 -4
1080 605 -4
892 606 -4
658 607 -4
782 607 -4
1090 607 4
864 608 -4
1094 608 -4
663 609 -4
748 609 -4
1094 609 -4
612 611 -4
718 612 -4
757 612 -4
614 613 -4
1101 613 -4
757 614 -4
797 615 -4
1005 615 4
618 616 -4
876 616 -4
1106 616 4
1168 618 4
648 619 -4
1120 619 4
648 620 -4
806 620 -4
923 620 4
1186 621 -4
709 624 -4
853 624 -4
1133 624 -4
626 625 -4
932 625 -4
629 627 -4
744 627 -4
1147 627 4
630 628 -4
630 629 -4
1038 630 -4
901 631 -4
1152 631 -4
633 632 -4
689 633 -4
786 633 -4
1152 633 -4
749 635 -4
1046 635 -4
1219 635 -4
637 636 -4
754 637 -4
794 637 -4
639 638 -4
1050 638 -4
794 639 -4
1055 640 4
643 641 -4
913 641 -4
1166 641 4
880 644 -4
1058 644 -4
647 645 -4
649 646 -4
1066 646 4
649 647 -4
846 647 -4
972 647 4
850 650 4
738 651 -4
848 651 -4
1018 651 4
741 654 -4
890 654 -4
1195 654 -4
657 655 -4
979 655 -4
816 656 -4
659 658 4
994 659 -4
1092 659 4
946 660 -4
1214 660 -4
662 661 -4
716 662 -4
827 662 -4
1214 662 -4
665 664 -4
791 665 -4
833 665 -4
667 666 -4
1102 666 -4
833 667 -4
1106 668 4
671 669 -4
956 669 -4
1111 672 -4
674 673 -4
676 674 -4
884 674 -4
1017 674 4
733 675 4
733 676 -4
678 677 -4
811 677 4
1072 678 -4
778 681 -4
929 681 -4
683 682 -4
1026 682 -4
856 683 -4
819 684 -4
856 684 -4
985 684 -4
686 685 4
944 686 -4
1149 686 4
688 687 -4
748 688 -4
866 688 -4
1215 688 4
691 690 -4
753 690 -4
831 691 -4
872 691 -4
693 692 -4
1164 692 -4
872 693 -4
695 694 4
696 695 -4
1166 695 4
957 696 -4
699 697 -4
1006 697 -4
957 699 -4
1171 700 -4
702 701 -4
703 702 -4
921 702 -4
1068 702 4
770 703 -4
707 704 -4
773 704 4
707 705 -4
770 705 -4
1186 705 4
771 706 4
924 706 4
1126 706 -4
1185 706 4
1126 707 -4
711 710 -4
1082 710 -4
893 711 -4
1027 711 4
713 712 4
1211 713 4
715 714 -4
1154 714 -4
786 715 -4
904 715 -4
1153 715 4
787 716 -4
1045 717 -4
719 718 -4
790 718 -4
870 719 -4
909 719 -4
721 720 -4
1224 720 -4
909 721 -4
723 722 4
724 723 -4
727 725 -4
799 725 -4
1056 725 -4
729 728 -4
731 730 -4
732 731 -4
968 731 -4
1122 731 4
808 732 -4
735 733 -4
736 734 4
737 734 -4
737 735 -4
808 735 -4
1125 735 4
1124 736 4
1187 736 -4
1187 737 -4
925 738 -4
1189 738 4
740 739 -4
1129 739 4
743 742 -4
1135 742 -4
934 743 -4
1083 743 4
896 744 -4
1035 744 4
747 746 -4
827 747 -4
948 747 -4
1095 747 4
750 748 -4
752 749 -4
1157 749 -4
752 750 -4
948 750 -4
753 751 4
1000 751 -4
1160 751 4
753 752 -4
908 753 -4
756 754 -4
830 754 -4
872 755 4
952 755 -4
908 756 -4
952 756 -4
758 757 -4
952 758 -4
760 759 4
761 760 -4
763 762 -4
764 762 -4
1107 762 -4
767 765 -4
1170 765 -4
767 766 -4
1060 767 -4
845 768 -4
772 770 -4
774 771 -4
774 772 -4
1071 772 4
775 773 -4
1070 773 4
775 774 -4
777 776 -4
1075 776 4
1079 777 -4
780 779 -4
1197 779 -4
981 780 -4
1136 780 4
858 781 -4
981 781 -4
1139 781 4
938 782 -4
991 782 4
785 784 -4
866 785 -4
998 785 -4
1041 785 4
788 786 -4
904 787 -4
998 788 -4
790 789 4
949 789 -4
1098 789 4
951 790 -4
793 791 -4
869 791 -4
833 792 4
1003 792 -4
951 793 -4
1003 793 -4
795 794 -4
1003 795 -4
1168 797 4
1168 798 -4
800 799 4
801 800 -4
802 801 -4
1113 802 -4
883 804 -4
968 805 -4
1065 805 -4
810 808 -4
812 809 -4
812 810 -4
813 811 -4
813 812 -4
1022 814 -4
817 816 -4
1029 817 -4
1198 817 4
1029 818 -4
1201 818 4
820 819 -4
935 819 4
987 819 -4
822 820 -4
941 821 4
987 821 -4
941 822 -4
1142 822 -4
824 823 -4
826 825 -4
904 826 -4
1043 826 -4
828 827 -4
906 828 -4
1043 828 -4
830 829 4
905 829 -4
1046 829 4
1002 830 -4
832 831 -4
907 831 -4
1002 832 -4
1051 832 -4
834 833 -4
1051 834 -4
837 835 4
837 836 -4
839 837 -4
1108 838 4
1108 839 -4
841 840 -4
842 841 -4
1173 842 -4
920 844 -4
1013 845 -4
1119 845 -4
851 848 -4
851 849 -4
852 850 -4
852 851 -4
976 853 -4
855 854 -4
1198 855 -4
857 856 -4
898 859 4
898 860 -4
1204 860 -4
862 861 4
1207 861 4
863 862 -4
865 864 -4
948 865 -4
1096 865 -4
867 866 -4
868 867 -4
1096 867 -4
869 868 4
1048 869 -4
871 870 -4
950 870 -4
1048 871 -4
1103 871 -4
873 872 -4
1103 873 -4
875 874 4
876 875 -4
1166 875 -4
1057 876 -4
878 877 -4
879 878 -4
1176 881 -4
967 882 -4
1065 883 -4
1180 883 -4
1015 884 -4
888 886 -4
888 887 -4
889 888 -4
930 890 -4
892 891 -4
1136 892 -4
894 893 -4
1147 898 4
1145 899 4
1151 900 -4
903 901 -4
903 902 -4
1151 902 -4
1154 902 -4
998 903 -4
1156 903 -4
905 904 -4
1156 905 -4
907 906 4
1100 907 -4
1001 908 -4
1223 908 -4
1049 909 4
911 910 4
913 911 -4
1106 911 -4
1007 912 4
1105 912 -4
1007 913 -4
916 914 -4
916 915 -4
917 916 -4
918 917 -4
1012 919 -4
922 920 -4
1119 920 -4
970 921 -4
970 922 -4
1012 922 -4
1182 923 -4
925 924 -4
926 924 -4
1125 924 -4
927 925 -4
927 926 -4
1129 926 4
928 927 -4
929 928 -4
1080 930 4
932 931 -4
1023 931 4
1083 932 -4
935 934 -4
937 935 -4
940 938 4
1141 939 -4
1090 941 4
943 942 4
945 943 -4
1213 944 4
1213 945 -4
947 946 -4
1043 947 -4
1218 947 -4
949 948 -4
1218 949 -4
1162 950 -4
1047 951 -4
1163 951 -4
954 953 4
956 954 -4
1055 954 -4
1054 955 -4
958 957 -4
1167 957 -4
959 958 -4
961 959 -4
962 960 -4
962 961 -4
963 962 -4
965 963 -4
1064 966 -4
969 967 -4
1180 967 -4
971 968 -4
971 969 -4
1064 969 -4
1183 970 -4
1122 971 -4
1069 972 4
1121 972 -4
974 973 -4
1186 973 -4
1075 974 4
1074 975 4
1192 975 -4
1133 976 4
978 977 4
979 978 -4
1027 979 -4
982 980 4
984 981 -4
984 982 -4
986 983 4
986 984 -4
988 985 4
988 986 -4
990 987 4
990 988 -4
1203 989 -4
1036 991 4
993 992 4
1035 992 4
995 993 -4
997 996 -4
999 997 -4
1096 997 -4
1000 998 -4
1000 999 -4
1155 999 -4
1222 1001 -4
1099 1002 -4
1101 1002 -4
1005 1004 -4
1006 1004 -4
1009 1008 -4
1010 1009 -4
1011 1010 -4
1014 1012 -4
1016 1013 -4
1016 1014 -4
1117 1014 -4
1180 1015 -4
1068 1016 -4
1067 1017 -4
1123 1017 4
1019 1018 -4
1020 1019 4
1130 1020 -4
1023 1021 4
1193 1021 -4
1195 1022 4
1026 1024 -4
1030 1029 -4
1032 1030 -4
1033 1031 4
1033 1032 -4
1034 1033 -4
1037 1036 4
1039 1037 -4
1042 1040 -4
1042 1041 -4
1044 1042 -4
1156 1042 -4
1045 1043 -4
1045 1044 -4
1217 1044 -4
1050 1048 -4
1161 1048 -4
1052 1049 -4
1052 1050 -4
1053 1051 -4
1053 1052 -4
1056 1054 -4
1059 1058 -4
1061 1059 -4
1062 1060 -4
1062 1061 -4
1178 1063 -4
1066 1064 -4
1067 1065 -4
1067 1066 -4
1178 1066 -4
1184 1068 4
1070 1069 -4
1184 1070 -4
1073 1071 -4
1074 1072 -4
1074 1073 -4
1076 1075 -4
1078 1076 -4
1132 1076 -4
1131 1077 -4
1082 1080 -4
1195 1081 -4
1086 1084 -4
1201 1084 -4
1087 1085 4
1200 1085 -4
1087 1086 -4
1088 1087 -4
1089 1088 -4
1207 1088 -4
1091 1090 4
1093 1091 -4
1216 1094 -4
1216 1095 -4
1097 1096 -4
1102 1100 -4
1221 1100 -4
1223 1100 -4
1222 1101 -4
1104 1103 -4
1107 1105 -4
1112 1111 -4
1114 1112 -4
1115 1113 -4
1115 1114 -4
1118 1116 -4
1120 1117 -4
1120 1118 -4
1121 1119 -4
1121 1120 -4
1124 1123 -4
1127 1125 -4
1128 1126 -4
1128 1127 -4
1131 1129 -4
1194 1130 -4
1134 1133 -4
1135 1133 -4
1139 1138 -4
1140 1138 -4
1142 1139 4
1203 1139 4
1142 1140 -4
1144 1141 4
1201 1141 4
1144 1142 -4
1146 1143 4
1145 1144 -4
1146 1144 -4
1148 1147 4
1150 1148 -4
1153 1151 -4
1155 1152 -4
1155 1153 -4
1157 1154 -4
1157 1155 -4
1158 1156 -4
1158 1157 -4
1159 1158 -4
1161 1159 -4
1163 1162 -4
1164 1162 -4
1225 1163 4
1225 1164 -4
1167 1165 -4
1172 1171 -4
1174 1172 -4
1176 1173 -4
1176 1174 -4
1179 1177 -4
1181 1178 -4
1181 1179 -4
1182 1180 -4
1182 1181 -4
1185 1184 -4
1188 1186 -4
1189 1187 -4
1190 1187 -4
1190 1188 -4
1193 1191 -4
1197 1195 -4
1197 1196 -4
1200 1199 -4
1202 1200 -4
1204 1201 4
1204 1202 -4
1206 1203 4
1206 1204 -4
1208 1205 4
1208 1206 -4
1209 1208 -4
1210 1209 4
1211 1210 -4
1212 1210 -4
1215 1213 -4
1217 1214 -4
1217 1215 -4
1218 1216 -4
1219 1218 -4
1220 1219 -4
1221 1220 -4
1224 1222 -4
730
496 2
497 2
498 2
499 4
500 2
501 2
502 2
503 2
504 2
505 2
506 2
507 2
508 2
509 2
510 2
511 2
512 2
513 2
514 4
515 2
516 2
517 4
518 2
519 2
520 2
521 2
522 2
523 2
524 2
525 2
526 2
527 2
528 2
529 2
530 2
531 2
532 2
533 2
534 4
535 2
536 2
537 2
538 2
539 2
540 2
541 2
542 2
543 4
544 2
545 2
546 2
547 2
548 2
549 2
550 2
551 2
552 2
553 2
554 4
555 -2
556 2
557 2
558 2
559 2
560 4
561 2
562 2
563 2
564 2
565 -2
566 -2
567 2
568 2
569 2
570 2
571 2
572 4
573 4
574 4
575 2
576 2
577 2
578 2
579 2
580 4
581 -2
582 -2
583 2
584 4
585 2
586 2
587 2
588 4
589 4
590 4
591 2
592 -2
593 2
594 2
595 2
596 2
597 -2
598 2
599 2
600 -2
601 2
602 -2
603 -4
604 4
605 4
606 4
607 2
608 2
609 4
610 4
611 2
612 2
613 2
614 2
615 -2
616 2
617 -2
618 2
619 -2
620 2
621 2
622 -4
623 4
624 4
625 4
626 2
627 2
628 2
629 4
630 4
631 2
632 2
633 4
634 4
635 2
636 4
637 2
638 4
639 2
640 -2
641 2
642 -2
643 2
644 2
645 2
646 -2
647 2
648 2
649 4
650 2
651 2
652 -4
653 4
654 4
655 4
656 2
657 2
658 2
659 -2
660 4
661 2
662 4
663 4
664 4
665 2
666 4
667 2
668 -2
669 2
670 -2
671 2
672 2
673 4
674 2
675 2
676 4
677 2
678 2
679 -4
680 4
681 4
682 4
683 2
684 4
685 2
686 -2
687 2
688 2
689 4
690 4
691 2
692 4
693 2
694 -2
695 -2
696 2
697 2
698 -2
699 4
700 2
701 4
702 2
703 4
704 2
705 2
706 -2
707 2
708 4
709 2
710 4
711 2
712 2
713 -2
714 4
715 2
716 4
717 -2
718 4
719 4
720 4
721 2
722 -2
723 -2
724 2
725 4
726 -4
727 4
728 2
729 2
730 4
731 2
732 4
733 2
734 2
735 2
736 -2
737 2
738 2
739 -2
740 4
741 4
742 4
743 2
744 2
745 -2
746 4
747 2
748 4
749 4
750 4
751 -2
752 4
753 2
754 4
755 -2
756 4
757 2
758 2
759 -2
760 -2
761 2
762 4
763 -2
764 4
765 2
766 2
767 2
768 4
769 4
770 2
771 2
772 2
773 -2
774 4
775 2
776 -2
777 4
778 4
779 4
780 2
781 2
782 2
783 -2
784 4
785 2
786 4
787 2
788 4
789 -2
790 2
791 4
792 -2
793 4
794 2
795 2
796 -2
797 -2
798 2
799 -2
800 -2
801 2
802 2
803 -4
804 -2
805 2
806 4
807 -2
808 2
809 2
810 2
811 -2
812 4
813 2
814 4
815 2
816 2
817 2
818 2
819 2
820 4
821 2
822 2
823 -2
824 2
825 4
826 2
827 4
828 4
829 -2
830 2
831 4
832 4
833 2
834 2
835 -2
836 2
837 2
838 -2
839 4
840 -2
841 2
842 2
843 -4
844 -2
845 4
846 4
847 -4
848 2
849 2
850 -2
851 4
852 2
853 4
854 2
855 2
856 2
857 2
858 -2
859 2
860 2
861 -2
862 -2
863 2
864 4
865 2
866 4
867 4
868 -2
869 2
870 4
871 4
872 2
873 2
874 -2
875 2
876 4
877 -2
878 4
879 2
880 2
881 -2
882 -2
883 4
884 4
885 -4
886 2
887 2
888 4
889 2
890 4
891 2
892 2
893 2
894 2
895 -2
896 2
897 2
898 -2
899 -2
900 4
901 4
902 4
903 4
904 4
905 4
906 -2
907 2
908 4
909 2
910 -2
911 2
912 -2
913 4
914 2
915 4
916 2
917 2
918 2
919 -2
920 4
921 4
922 2
923 -2
924 2
925 4
926 2
927 4
928 4
929 4
930 -2
931 2
932 4
933 -2
934 2
935 2
936 -2
937 2
938 2
939 2
940 2
941 -2
942 -2
943 2
944 -2
945 4
946 4
947 4
948 4
949 4
950 2
951 4
952 4
953 -2
954 2
955 -2
956 4
957 4
958 4
959 2
960 2
961 4
962 2
963 2
964 2
965 2
966 -2
967 4
968 4
969 2
970 2
971 4
972 -2
973 2
974 2
975 -2
976 -2
977 -2
978 2
979 4
980 -2
981 2
982 -2
983 -2
984 4
985 -2
986 2
987 2
988 2
989 2
990 2
991 -2
992 -4
993 2
994 -2
995 4
996 2
997 4
998 4
999 2
1000 4
1001 2
1002 4
1003 4
1004 2
1005 -2
1006 4
1007 -2
1008 2
1009 2
1010 2
1011 4
1012 4
1013 4
1014 2
1015 2
1016 4
1017 -2
1018 2
1019 2
1020 -2
1021 -2
1022 -2
1023 -2
1024 2
1025 2
1026 4
1027 -2
1028 -2
1029 2
1030 4
1031 -4
1032 2
1033 2
1034 2
1035 -2
1036 -4
1037 2
1038 -2
1039 4
1040 2
1041 2
1042 4
1043 4
1044 4
1045 4
1046 -2
1047 2
1048 4
1049 2
1050 4
1051 4
1052 4
1053 2
1054 2
1055 -2
1056 4
1057 -2
1058 2
1059 2
1060 2
1061 2
1062 4
1063 2
1064 4
1065 4
1066 2
1067 4
1068 -2
1069 2
1070 2
1071 2
1072 4
1073 2
1074 2
1075 -2
1076 4
1077 -2
1078 4
1079 -2
1080 2
1081 2
1082 4
1083 -2
1084 4
1085 -2
1086 2
1087 2
1088 2
1089 2
1090 -4
1091 2
1092 -4
1093 4
1094 2
1095 2
1096 4
1097 2
1098 -2
1099 4
1100 4
1101 2
1102 4
1103 4
1104 2
1105 4
1106 -2
1107 4
1108 -2
1109 2
1110 4
1111 2
1112 4
1113 2
1114 2
1115 4
1116 2
1117 4
1118 2
1119 4
1120 2
1121 4
1122 -2
1123 2
1124 2
1125 2
1126 4
1127 2
1128 2
1129 -2
1130 2
1131 4
1132 -2
1133 2
1134 2
1135 4
1136 -2
1137 2
1138 4
1139 -2
1140 4
1141 -2
1142 2
1143 -2
1144 2
1145 -2
1146 2
1147 -4
1148 2
1149 -4
1150 4
1151 2
1152 2
1153 2
1154 4
1155 4
1156 4
1157 4
1158 4
1159 2
1160 -2
1161 4
1162 2
1163 2
1164 4
1165 4
1166 -2
1167 4
1168 -2
1169 2
1170 4
1171 4
1172 4
1173 2
1174 2
1175 -2
1176 4
1177 2
1178 4
1179 2
1180 4
1181 2
1182 4
1183 -2
1184 2
1185 2
1186 2
1187 4
1188 4
1189 -2
1190 4
1191 -2
1192 2
1193 4
1194 -2
1195 2
1196 2
1197 4
1198 -2
1199 2
1200 4
1201 -2
1202 4
1203 -2
1204 2
1205 -2
1206 2
1207 -2
1208 2
1209 -2
1210 2
1211 -2
1212 4
1213 2
1214 2
1215 2
1216 2
1217 4
1218 4
1219 4
1220 2
1221 4
1222 2
1223 2
1224 4
1225 -2
